100
663 381
810 126
183 427
521 461
684 314
155 444
201 215
793 598
519 928
375 841
890 630
958 559
694 424
950 777
807 615
695 201
434 847
777 698
336 74
341 629
672 281
935 704
506 354
853 623
372 425
660 227
730 336
232 383
737 894
189 240
487 249
156 270
817 608
542 920
663 272
737 702
258 145
555 254
800 744
512 918
221 854
867 522
699 634
119 585
781 452
799 588
363 943
77 393
169 253
268 468
801 687
60 929
153 97
778 476
154 468
180 124
353 826
5 112
823 913
554 519
345 195
297 72
5 21
205 62
27 447
672 143
620 913
518 887
349 149
811 102
159 888
570 233
818 342
793 472
804 51
368 507
717 198
82 274
206 267
24 289
70 598
129 902
819 61
871 542
758 120
59 292
228 307
987 426
578 4
411 865
637 614
236 785
352 450
62 586
94 895
893 565
268 821
729 460
283 868
797 613
